sat
(:added-eqs                       3986
 :arith-eq-adapter                137
 :arith-bound-propagations-lp     35
 :arith-branch                    1
 :arith-conflicts                 529
 :arith-cube-calls                1
 :arith-diseq                     205
 :arith-fixed-eqs                 115
 :arith-gcd-calls                 82
 :arith-grobner-calls             63
 :arith-grobner-conflicts         2
 :arith-hnf-calls                 1
 :arith-horner-calls              24
 :arith-horner-cross-nested-forms 340
 :arith-lower                     1863
 :arith-make-feasible             1593
 :arith-max-columns               278
 :arith-max-rows                  82
 :arith-nla-add-bounds            34
 :arith-nla-lemmas                178
 :arith-nla-propagate-bounds      319
 :arith-nla-propagate-eq          1340
 :arith-nra-calls                 44
 :arith-offset-eqs                49
 :arith-patches                   82
 :arith-patches-success           81
 :arith-upper                     3720
 :binary-propagations             9844
 :conflicts                       136
 :decisions                       17309
 :del-clause                      155
 :elim-unconstrained              34
 :final-checks                    232
 :max-memory                      21.74
 :memory                          18.79
 :minimized-lits                  100
 :mk-bool-var                     1156
 :mk-clause                       435
 :mk-clause-binary                5553
 :nlsat-conflicts                 3221
 :nlsat-decisions                 70
 :nlsat-propagations              100026
 :nlsat-restarts                  1
 :nlsat-stages                    51197
 :num-allocs                      51528855
 :num-checks                      1
 :propagations                    12277
 :restarts                        1
 :rlimit-count                    1509315
 :time                            0.39
 :total-time                      0.40)
